&CONTROL
    calculation = "vc-relax"
    max_seconds =  8.64000e+04
    prefix = 'MnO2'
    outdir = './tmp/'
    pseudo_dir  = "/home/ruchi/wd/MNO2_DFT/optimization/optimization_check/"
    etot_conv_thr = 1.0D-4
    forc_conv_thr = 1.0D-3
    nstep       = 100
    tprnfor     = .TRUE.
    tstress     = .TRUE.
/

&SYSTEM
    a                         =  9.78760e+00
    c                         =  2.86500e+00
    ecutrho                   =  1.87000e+02
    ecutwfc                   =  4.70000e+01
    ibrav                     = 6
    nat                       = 24
    nspin                     = 2
    ntyp                      = 2
    occupations               = "smearing"
    smearing                  = "gaussian"
    degauss                   =  1.00000e-02
    starting_magnetization(1) =  2.00000e-01
    starting_magnetization(2) =  0.00000e+00
/

&ELECTRONS
    conv_thr         =  1.00000e-06
    electron_maxstep = 200
    mixing_beta      =  7.00000e-01
    startingpot      = "atomic"
    startingwfc      = "atomic+random"
/
&IONS
    ion_dynamics = "bfgs"

/

&cell 
    cell_dynamics = "bfgs"

/

ATOMIC_SPECIES
Mn     54.93805  Mn.pbe-spn-kjpaw_psl.0.3.1.UPF.txt
O      15.99940  O.pbe-n-kjpaw_psl.0.1.UPF.txt


ATOMIC_POSITIONS {angstrom}
Mn    3.403148413         1.617890120         0.000000000
Mn    6.384451389         8.169709206         0.000000000
Mn    8.169709206         3.403148413         0.000000000
Mn    1.617890120         6.384451389         0.000000000
Mn    8.296948433         6.511690140         1.432500005
Mn    1.490651369         3.275909424         1.432500005
Mn    3.275909424         8.296948433         1.432500005
Mn    6.511690140         1.490651369         1.432500005
O     1.518056750         1.987861395         0.000000000
O     8.269542694         7.799738407         0.000000000
O     7.799738407         1.518056750         0.000000000
O     1.987861395         8.269542694         0.000000000
O     6.411856174         6.881660938         1.432500005
O     3.375743151         2.905938387         1.432500005
O     2.905938387         6.411856174         1.432500005
O     6.881660938         3.375743151         1.432500005
O     5.297048569         1.615932584         0.000000000
O     4.490550995         8.171667099         0.000000000
O     8.171667099         5.297048569         0.000000000
O     1.615932584         4.490550995         0.000000000
O     0.403248340         6.509732246         1.432500005
O     9.384350777         3.277867317         1.432500005
O     3.277867317         0.403248340         1.432500005
O     6.509732246         9.384350777         1.432500005


K_POINTS {automatic}
1 1 4 0 0 0 
